122     4       
22      23      20      24      
0       0       0       0       0       3       2       3       4       
8       0       0       0       8       3       5       8       9       
10      0       0       10      0       3       6       14      71      
4       0       0       0       3       1       7       
2       10      0       0       0       3       16      17      21      
6       0       0       0       3       3       10      11      13      
9       0       0       0       2       3       15      22      41      
4       0       0       6       0       1       33      
8       0       2       0       0       3       12      29      40      
4       0       2       0       0       3       32      39      64      
1       5       0       0       0       1       116     
5       0       0       2       0       2       84      120     
7       0       9       0       0       3       18      19      57      
8       0       7       0       0       3       20      96      111     
8       0       4       0       0       3       25      34      51      
9       0       0       0       1       3       30      74      76      
1       0       0       0       4       2       26      89      
9       0       5       0       0       3       31      38      43      
2       0       0       6       0       3       27      46      106     
5       5       0       0       0       3       23      42      65      
1       0       0       3       0       1       119     
4       0       0       0       5       2       24      85      
4       0       0       7       0       2       78      89      
8       9       0       0       0       1       28      
4       0       0       8       0       1       58      
5       8       0       0       0       3       37      44      52      
3       5       0       0       0       3       28      35      36      
6       0       0       0       3       1       49      
5       0       7       0       0       1       95      
5       0       0       5       0       1       114     
2       0       10      0       0       3       47      83      100     
9       0       3       0       0       1       79      
1       8       0       0       0       1       71      
3       6       0       0       0       1       50      
9       0       0       0       10      1       73      
4       0       0       8       0       1       77      
4       6       0       0       0       1       97      
3       0       0       0       2       3       48      68      103     
4       5       0       0       0       1       82      
8       5       0       0       0       1       75      
3       0       4       0       0       2       60      80      
7       0       0       0       10      3       53      59      61      
1       5       0       0       0       3       45      62      87      
7       0       6       0       0       1       94      
5       0       0       0       7       1       84      
1       0       0       3       0       1       59      
9       0       0       2       0       1       63      
9       0       0       1       0       2       55      99      
5       0       0       0       4       1       89      
7       0       0       0       4       1       56      
7       0       0       3       0       2       67      102     
8       0       1       0       0       1       54      
7       0       0       0       5       1       85      
7       7       0       0       0       1       80      
7       0       0       9       0       2       61      108     
5       2       0       0       0       2       70      105     
4       0       0       0       8       1       72      
8       0       0       5       0       1       63      
9       0       0       0       7       1       78      
5       0       0       0       7       1       93      
5       6       0       0       0       1       67      
8       4       0       0       0       1       81      
8       0       0       0       2       2       81      115     
7       3       0       0       0       2       66      90      
2       0       10      0       0       2       66      72      
10      5       0       0       0       2       69      107     
7       0       0       5       0       1       95      
7       4       0       0       0       1       79      
10      0       6       0       0       2       101     108     
7       0       0       0       3       1       78      
8       0       0       0       8       1       80      
10      0       0       10      0       1       115     
2       0       0       5       0       1       91      
3       0       4       0       0       1       82      
2       0       4       0       0       1       77      
7       0       0       0       5       1       98      
2       0       0       4       0       1       90      
1       0       0       7       0       1       93      
10      0       0       0       10      1       92      
9       0       0       1       0       1       90      
9       1       0       0       0       1       109     
10      6       0       0       0       1       106     
9       0       0       0       1       3       86      88      113     
5       0       0       0       6       1       117     
7       3       0       0       0       1       94      
4       9       0       0       0       1       94      
5       0       0       10      0       1       108     
10      0       0       0       3       2       95      118     
1       0       0       9       0       1       114     
10      7       0       0       0       1       116     
2       0       0       1       0       2       101     113     
7       0       0       0       7       2       111     112     
6       5       0       0       0       1       109     
4       0       0       4       0       1       98      
3       4       0       0       0       1       110     
2       10      0       0       0       1       117     
9       0       0       0       4       1       104     
4       0       0       0       8       1       116     
7       0       0       7       0       1       114     
10      0       5       0       0       1       105     
4       0       0       0       5       1       121     
8       0       0       3       0       1       106     
6       3       0       0       0       1       107     
2       4       0       0       0       2       111     115     
3       0       0       5       0       1       112     
7       1       0       0       0       1       112     
5       0       0       10      0       1       110     
5       0       9       0       0       1       109     
5       0       0       3       0       1       113     
1       1       0       0       0       1       120     
2       0       0       0       9       1       118     
3       0       0       0       2       1       118     
7       0       0       4       0       1       117     
8       0       0       2       0       1       120     
3       0       3       0       0       1       119     
2       0       5       0       0       1       119     
5       0       1       0       0       1       121     
7       0       7       0       0       1       121     
2       0       0       0       8       1       122     
6       0       0       5       0       1       122     
7       8       0       0       0       1       122     
0       0       0       0       0       0       